NAME: PointSet_Angle_30_9
TYPE: TSP
COMMENT: Points chosen discrete uniformly at random out of ${0, \ldots, 500}^2$.
DIMENSION: 30
EDGE_WEIGHT_TYPE: EUC_2D
NODE_COORD_SECTION
1 417 119
2 459 293
3 54 456
4 245 28
5 156 279
6 402 496
7 136 98
8 374 48
9 56 242
10 324 36
11 360 101
12 30 71
13 178 493
14 156 28
15 438 107
16 235 100
17 226 440
18 139 27
19 396 384
20 55 298
21 409 203
22 293 291
23 47 413
24 340 351
25 402 410
26 133 261
27 257 163
28 332 436
29 402 234
30 210 339
EOF
